InboundTrucks  = 40;
OutboundTrucks = 20;
InboundDoors   = 6;
OutboundDoors  = 6;
ReleaseTime    = [25,58,14,22,0,80,80,37,29,51,26,51,69,113,57,7,81,80,22,16,13,104,31,114,3,30,73,32,6,26,18,44,41,104,40,66,113,72,95,27];
UnloadTime     = [31,35,44,38,19,40,13,38,31,44,22,30,44,12,15,40,34,40,43,17,15,19,29,40,42,35,37,31,35,23,27,15,13,24,22,10,38,29,22,31];
LoadTime       = [28,5,18,7,28,25,20,13,15,15,8,17,24,12,12,29,6,16,24,19];
TransferTime   = [| 0,45,0,37,0,0,0,25,0,41,0,0,41,0,21,0,0,42,16,0 | 0,0,0,0,0,0,21,0,0,0,0,0,0,35,0,0,0,0,0,0 | 0,46,0,41,46,0,44,0,0,0,0,0,35,0,16,0,0,0,0,39 | 0,0,0,35,0,0,0,0,34,0,0,39,45,12,0,20,0,20,48,0 | 0,0,0,0,0,0,0,0,0,0,0,0,12,25,0,0,26,39,0,0 | 0,0,0,31,0,11,0,0,0,0,0,0,0,0,0,0,0,0,0,0 | 14,0,0,0,0,11,0,0,0,26,21,0,34,0,0,0,0,0,0,0 | 20,0,45,0,47,0,0,12,33,43,47,0,0,0,0,14,36,0,18,0 | 28,0,0,0,23,0,0,11,0,45,0,0,0,0,0,18,0,17,39,0 | 0,0,0,0,0,0,36,0,0,0,20,0,0,0,0,0,0,0,0,0 | 0,0,0,0,0,0,0,17,0,0,0,0,0,0,0,36,0,20,0,0 | 0,0,10,0,0,0,0,45,0,0,0,0,0,0,0,0,0,0,12,0 | 15,41,0,0,24,0,22,0,0,0,13,0,17,0,35,0,0,0,27,0 | 0,0,0,16,0,0,0,0,20,10,0,0,0,0,0,0,0,0,14,0 | 0,17,0,0,0,39,0,50,0,0,0,20,14,10,34,50,23,0,0,0 | 0,0,0,0,48,0,0,0,0,26,0,22,0,0,0,0,0,0,44,0 | 0,13,0,0,0,43,0,26,0,0,0,28,0,0,0,17,0,0,0,0 | 0,18,0,46,0,0,45,38,0,0,0,0,13,0,0,0,29,0,0,0 | 10,0,35,0,0,0,31,32,18,0,0,30,31,0,0,0,10,0,31,0 | 0,0,0,0,49,0,0,0,0,25,0,14,0,17,0,0,0,0,42,0 | 0,0,0,0,0,0,0,0,0,0,41,0,0,0,0,0,0,0,22,0 | 0,0,21,0,0,28,0,20,0,0,0,0,0,45,0,23,28,0,47,0 | 0,0,0,0,0,0,0,0,29,0,0,0,0,32,36,0,0,0,0,0 | 30,22,45,0,0,0,0,34,0,0,24,0,0,0,0,0,0,0,0,21 | 0,0,0,0,0,41,46,0,0,0,0,0,0,0,45,0,26,15,0,0 | 0,0,0,0,0,0,0,35,0,16,0,0,0,27,0,0,0,0,30,0 | 0,0,0,0,31,0,18,0,0,0,12,0,0,49,0,0,28,0,0,0 | 0,0,0,50,0,0,0,0,0,0,0,0,0,0,0,0,0,0,0,0 | 0,0,45,0,0,0,0,0,0,0,0,0,0,15,0,0,0,12,0,41 | 12,0,0,0,40,0,0,0,0,0,0,0,0,31,43,0,0,0,0,41 | 0,0,0,0,0,17,0,0,28,0,31,0,0,0,0,0,0,0,0,0 | 49,0,0,11,0,0,0,0,24,0,0,0,0,0,0,17,0,0,24,0 | 0,0,0,0,0,0,0,0,24,0,0,0,0,0,48,0,0,32,0,35 | 0,0,10,0,22,0,0,0,0,29,0,0,0,0,0,0,0,0,14,0 | 24,0,13,0,0,0,50,0,0,0,0,19,0,0,0,0,0,45,42,0 | 0,0,45,0,0,0,37,0,34,0,0,0,41,50,0,0,0,0,0,0 | 39,0,0,0,44,0,0,48,0,0,0,44,0,0,0,0,0,50,0,18 | 0,46,0,0,0,37,0,0,0,0,0,0,0,0,0,21,0,0,30,0 | 0,0,0,21,50,0,0,0,0,0,41,0,47,0,44,0,0,0,0,0 | 46,0,0,0,0,0,0,0,0,0,0,36,0,0,0,32,0,12,0,18 |];
